c Sudoku solution
p cnf 729 0
122 0
145 0
177 0
216 0
259 0
371 0
421 0
444 0
492 0
558 0
563 0
627 0
713 0
739 0
788 0
841 0
791 0
581 0
918 0
931 0
868 0
111 0
261 0
651 0
884 0
415 0
665 0
976 0
293 0
323 0
319 0
153 0
817 0
832 0
529 0
228 0
134 0
166 0
274 0
189 0
198 0
348 0
536 0
943 0
969 0
649 0
542 0
514 0
612 0
575 0
597 0
247 0
282 0
235 0
337 0
746 0
855 0
826 0
456 0
467 0
757 0
772 0
764 0
952 0
725 0
924 0
354 0
362 0
694 0
686 0
483 0
678 0
479 0
438 0
633 0
873 0
899 0
385 0
396 0
987 0
995 0
